c ind 113 115 117 119 123 126 129 132 17 19 0
c ind 21 23 25 27 29 3 31 33 4 6 0
c ind 7 0
p cnf 132 395
-1 -2 5 0
-1 2 8 0
-10 11 0
-10 28 0
-100 101 0
-100 24 0
-101 40 0
-101 95 0
-102 -103 108 0
-102 103 32 0
-103 104 0
-103 30 0
-104 105 0
-104 28 0
-105 106 0
-105 26 0
-106 107 0
-106 13 0
-107 -25 4 0
-107 -4 25 0
-108 -109 120 0
-108 109 121 0
-109 110 0
-109 118 0
-11 12 0
-11 26 0
-110 111 0
-110 116 0
-111 112 0
-111 114 0
-112 -113 7 0
-112 -7 113 0
-114 -115 7 0
-114 -7 115 0
-116 -117 7 0
-116 -7 117 0
-118 -119 7 0
-118 -7 119 0
-12 13 0
-12 24 0
-120 -4 6 0
-120 -6 4 0
-121 -122 120 0
-121 122 124 0
-122 -123 4 0
-122 -4 123 0
-124 -125 120 0
-124 125 127 0
-125 -126 4 0
-125 -4 126 0
-127 -128 120 0
-127 128 130 0
-128 -129 4 0
-128 -4 129 0
-13 14 0
-13 22 0
-130 -131 120 0
-130 131 32 0
-131 -132 4 0
-131 -4 132 0
-14 15 0
-14 20 0
-15 16 0
-15 18 0
-16 -17 7 0
-16 -7 17 0
-18 -19 7 0
-18 -7 19 0
-2 -3 4 0
-2 -4 3 0
-20 -21 7 0
-20 -7 21 0
-22 -23 7 0
-22 -7 23 0
-24 -25 7 0
-24 -7 25 0
-26 -27 7 0
-26 -7 27 0
-28 -29 7 0
-28 -7 29 0
-30 -31 7 0
-30 -7 31 0
-32 -33 6 0
-32 -6 33 0
-34 -35 5 0
-34 35 43 0
-35 30 0
-35 36 0
-36 28 0
-36 37 0
-37 26 0
-37 38 0
-38 24 0
-38 39 0
-39 22 0
-39 40 0
-40 20 0
-40 41 0
-41 18 0
-41 42 0
-42 -17 4 0
-42 -4 17 0
-43 -44 32 0
-43 44 52 0
-44 30 0
-44 45 0
-45 28 0
-45 46 0
-46 26 0
-46 47 0
-47 24 0
-47 48 0
-48 22 0
-48 49 0
-49 20 0
-49 50 0
-5 -6 7 0
-5 -7 6 0
-50 16 0
-50 51 0
-51 -19 4 0
-51 -4 19 0
-52 -53 32 0
-52 53 60 0
-53 30 0
-53 54 0
-54 28 0
-54 55 0
-55 26 0
-55 56 0
-56 24 0
-56 57 0
-57 22 0
-57 58 0
-58 20 0
-58 59 0
-59 42 0
-59 51 0
-60 -61 32 0
-60 61 68 0
-61 30 0
-61 62 0
-62 28 0
-62 63 0
-63 26 0
-63 64 0
-64 24 0
-64 65 0
-65 22 0
-65 66 0
-66 15 0
-66 67 0
-67 -21 4 0
-67 -4 21 0
-68 -69 32 0
-68 69 75 0
-69 30 0
-69 70 0
-7 0
-70 28 0
-70 71 0
-71 26 0
-71 72 0
-72 24 0
-72 73 0
-73 22 0
-73 74 0
-74 41 0
-74 67 0
-75 -76 32 0
-75 76 82 0
-76 30 0
-76 77 0
-77 28 0
-77 78 0
-78 26 0
-78 79 0
-79 24 0
-79 80 0
-8 -9 32 0
-8 9 34 0
-80 22 0
-80 81 0
-81 50 0
-81 67 0
-82 -83 32 0
-82 83 89 0
-83 30 0
-83 84 0
-84 28 0
-84 85 0
-85 26 0
-85 86 0
-86 24 0
-86 87 0
-87 22 0
-87 88 0
-88 59 0
-88 67 0
-89 -90 32 0
-89 90 96 0
-9 10 0
-9 30 0
-90 30 0
-90 91 0
-91 28 0
-91 92 0
-92 26 0
-92 93 0
-93 24 0
-93 94 0
-94 14 0
-94 95 0
-95 -23 4 0
-95 -4 23 0
-96 -97 32 0
-96 97 102 0
-97 30 0
-97 98 0
-98 28 0
-98 99 0
-99 100 0
-99 26 0
1 -2 -5 0
1 -5 -8 0
1 0
1 2 -8 0
10 -11 -28 0
100 -101 -24 0
101 -40 -95 0
102 -103 -108 0
102 -108 -32 0
102 103 -32 0
103 -104 -30 0
104 -105 -28 0
105 -106 -26 0
106 -13 -107 0
107 -25 -4 0
107 25 4 0
108 -109 -120 0
108 -120 -121 0
108 109 -121 0
109 -110 -118 0
11 -12 -26 0
110 -111 -116 0
111 -112 -114 0
112 -113 -7 0
112 113 7 0
114 -115 -7 0
114 115 7 0
116 -117 -7 0
116 117 7 0
118 -119 -7 0
118 119 7 0
12 -13 -24 0
120 -6 -4 0
120 6 4 0
121 -120 -124 0
121 -122 -120 0
121 122 -124 0
122 -123 -4 0
122 123 4 0
124 -120 -127 0
124 -125 -120 0
124 125 -127 0
125 -126 -4 0
125 126 4 0
127 -120 -130 0
127 -128 -120 0
127 128 -130 0
128 -129 -4 0
128 129 4 0
13 -14 -22 0
130 -120 -32 0
130 -131 -120 0
130 131 -32 0
131 -132 -4 0
131 132 4 0
14 -15 -20 0
15 -16 -18 0
16 -17 -7 0
16 17 7 0
18 -19 -7 0
18 19 7 0
2 -3 -4 0
2 3 4 0
20 -21 -7 0
20 21 7 0
22 -23 -7 0
22 23 7 0
24 -25 -7 0
24 25 7 0
26 -27 -7 0
26 27 7 0
28 -29 -7 0
28 29 7 0
30 -31 -7 0
30 31 7 0
32 -6 -33 0
32 6 33 0
34 -35 -5 0
34 -5 -43 0
34 35 -43 0
35 -36 -30 0
36 -37 -28 0
37 -38 -26 0
38 -39 -24 0
39 -40 -22 0
4 0
40 -41 -20 0
41 -42 -18 0
42 -17 -4 0
42 17 4 0
43 -32 -52 0
43 -44 -32 0
43 44 -52 0
44 -45 -30 0
45 -46 -28 0
46 -47 -26 0
47 -48 -24 0
48 -49 -22 0
49 -50 -20 0
5 -6 -7 0
5 6 7 0
50 -16 -51 0
51 -19 -4 0
51 19 4 0
52 -32 -60 0
52 -53 -32 0
52 53 -60 0
53 -54 -30 0
54 -55 -28 0
55 -56 -26 0
56 -57 -24 0
57 -58 -22 0
58 -59 -20 0
59 -42 -51 0
60 -32 -68 0
60 -61 -32 0
60 61 -68 0
61 -62 -30 0
62 -63 -28 0
63 -64 -26 0
64 -65 -24 0
65 -66 -22 0
66 -15 -67 0
67 -21 -4 0
67 21 4 0
68 -32 -75 0
68 -69 -32 0
68 69 -75 0
69 -70 -30 0
70 -71 -28 0
71 -72 -26 0
72 -73 -24 0
73 -74 -22 0
74 -41 -67 0
75 -32 -82 0
75 -76 -32 0
75 76 -82 0
76 -77 -30 0
77 -78 -28 0
78 -79 -26 0
79 -80 -24 0
8 -32 -34 0
8 -9 -32 0
8 9 -34 0
80 -81 -22 0
81 -50 -67 0
82 -32 -89 0
82 -83 -32 0
82 83 -89 0
83 -84 -30 0
84 -85 -28 0
85 -86 -26 0
86 -87 -24 0
87 -88 -22 0
88 -59 -67 0
89 -32 -96 0
89 -90 -32 0
89 90 -96 0
9 -10 -30 0
90 -91 -30 0
91 -92 -28 0
92 -93 -26 0
93 -94 -24 0
94 -14 -95 0
95 -23 -4 0
95 23 4 0
96 -32 -102 0
96 -97 -32 0
96 97 -102 0
97 -98 -30 0
98 -99 -28 0
99 -100 -26 0
